09-routing/solutions/XSH-n20-k4-35.opt.sol
Route #1: 7 1 14 19 20
Route #2: 3 17 15 2 16
Route #3: 5 13 12 11 10
Route #4: 18 6 8 9 4
Cost 707
